p cnf 6 27
-1 0
-4 5 0
-6 -3 -2 0
-4 -3 -1 6 0
2 3 4 5 0
3 -3 -1 -5 0
3 6 0
-3 5 -4 4 0
-6 0
2 5 0
1 -5 4 5 0
-6 3 5 6 0
3 0
3 4 0
-6 4 0
-5 0
1 -5 4 -1 0
3 4 -3 -2 0
3 -3 -2 0
-6 3 -4 0
-6 3 4 -3 0
-5 -1 0
2 -2 0
4 6 0
3 0
-2 0
2 3 -1 0
